(set-logic UFLIA)
(declare-fun x () Bool)
(declare-fun y () Bool)
(declare-fun a () Bool)
(declare-fun b () Bool)
;(declare-fun f (Bool Bool Bool) Bool)
(assert (= x y))
(assert (= a b))
(assert (not (= (and x true a) (and y true b))))
(check-sat)
(exit)
